49 2
77 80
1 1
56 1
5 47
415 298
1 10
288 1
2 5
60 163
9 2
93 1
3 283
322 1
1 3
256 1
13 27
8 5
80 2
3 41
80 208
88 1
35 149
121 1
5 52
173 5
120 1
2 54
82 141
1 19
134 1
415 90
1 12
2 297
60 13
9 18
3 30
322 8
1 15
256 1
13 194
8 15
3 6
80 180
35 27
5 261
173 4
120 1
5 80
78 1
